(set-logic ALL)
(declare-fun var0 () String)
(assert (str.in_re var0 (re.++ (re.union (re.+ (re.union (re.+ (re.union (re.+ (re.union (re.* (str.to_re "00")) (re.* (str.to_re "111")))) (re.+ (re.union (re.union (str.to_re "222") (str.to_re "3")) (re.union (str.to_re "44") (str.to_re "55")))))) (re.+ (re.union (re.+ (re.union (re.+ (str.to_re "66")) (re.+ (str.to_re "77")))) (re.+ (re.union (re.+ (str.to_re "88")) (re.+ (str.to_re "99")))))))) (re.+ (re.+ (re.* (re.union (re.union (re.+ (re.union (str.to_re "aa") (str.to_re "b"))) (re.+ (re.+ (str.to_re "c")))) (re.union (re.+ (re.union (str.to_re "ddd") (str.to_re "e"))) (re.+ (re.* (str.to_re "f"))))))))) (re.* (re.+ (re.union (re.union (re.* (re.+ (re.+ (re.union (str.to_re "g") (str.to_re "hhh"))))) (re.* (re.+ (re.union (re.* (str.to_re "ii")) (re.* (str.to_re "jjj")))))) (re.union (re.* (re.+ (re.+ (re.+ (str.to_re "kk"))))) (re.* (re.* (re.* (re.* (str.to_re "l"))))))))))))
(assert (<= 15 (str.len var0)))
(check-sat)